n = 100;
C = 526;
w = [589,741,199,345,881,758,219,833,546,746,907,734,231,993,88,79,776,101,902,558,258,726,272,810,429,353,284,869,882,121,594,240,754,833,873,750,267,553,107,743,163,951,514,822,426,855,739,949,155,486,730,246,243,364,550,485,262,448,990,893,806,584,484,40,629,25,321,372,685,660,601,362,765,866,232,88,551,233,630,673,936,687,823,467,184,566,926,562,643,817,59,667,191,134,378,499,510,156,374,297];
p = [589,741,199,345,881,758,219,833,546,746,907,734,231,993,88,79,776,101,902,558,258,726,272,810,429,353,284,869,882,121,594,240,754,833,873,750,267,553,107,743,163,951,514,822,426,855,739,949,155,486,730,246,243,364,550,485,262,448,990,893,806,584,484,40,629,25,321,372,685,660,601,362,765,866,232,88,551,233,630,673,936,687,823,467,184,566,926,562,643,817,59,667,191,134,378,499,510,156,374,297];
